p cnf 290 312
-92 93 0
12 93 0
-45 66 0
-46 66 0
-45 204 0
-41 179 0
-109 39 0
-212 34 0
-47 207 0
-46 187 0
-217 92 0
-108 15 0
-108 13 0
-112 189 0
-218 181 182 0
-8 232 0
-68 265 0
-46 67 0
-81 70 0
-96 12 0
-94 12 0
-4 3 0
-5 3 0
-3 4 5 0
-13 12 0
-12 13 0
-17 12 0
-12 17 0
-41 12 0
-93 92 0
-94 92 0
-95 92 0
-96 92 0
-167 166 0
-169 166 0
-170 166 0
-176 166 0
-166 167 169 170 176 0
-180 179 0
-179 180 0
-211 210 0
-210 211 0
-221 210 0
-210 221 0
-255 210 0
-210 255 0
-261 210 0
-263 262 0
-262 263 0
-264 262 0
-262 264 0
-266 265 0
-268 267 0
-267 268 0
-273 272 0
-272 273 0
-274 272 0
-272 274 0
-275 272 0
-272 275 0
-277 276 0
-278 276 0
-279 276 0
-280 276 0
-276 277 278 279 280 0
-6 5 0
-5 6 0
-9 5 0
-5 9 0
-14 13 0
-15 13 0
-16 13 0
-13 14 15 16 0
-18 17 0
-17 18 0
-19 17 0
-21 17 0
-23 17 0
-28 17 0
-33 17 0
-34 17 0
-38 17 0
-39 17 0
-40 17 0
-71 70 0
-70 71 0
-77 76 0
-78 76 0
-76 77 78 0
-80 79 0
-79 80 0
-81 79 0
-82 79 0
-90 89 0
-91 89 0
-97 96 0
-98 96 0
-99 96 0
-96 97 98 99 0
159 160 161 162 0
-168 167 0
-171 170 0
-170 171 0
-175 170 0
-177 176 0
-178 176 0
-176 177 178 0
-181 180 0
-182 180 0
-183 180 0
-180 181 182 183 0
187 204 207 0
-212 211 0
-213 211 0
-214 211 0
-215 211 0
-216 211 0
-217 211 0
-218 211 0
-219 211 0
-220 211 0
-211 212 213 214 215 216 217 218 219 220 0
-222 221 0
-232 221 0
-249 221 0
-221 222 232 249 0
-256 255 0
-257 255 0
-258 255 0
-255 256 257 258 0
-269 268 0
-268 269 0
-270 268 0
-7 6 0
-8 6 0
-6 7 8 0
-10 9 0
-11 9 0
-9 10 11 0
-20 19 0
-22 21 0
-24 23 0
-23 24 0
-25 23 0
-23 25 0
-26 23 0
-23 26 0
-27 23 0
-29 28 0
-30 28 0
-31 28 0
-32 28 0
-28 29 30 31 32 0
-35 34 0
-36 34 0
-37 34 0
-34 35 36 37 0
45 46 47 0
-53 52 0
-54 52 0
-52 53 54 0
-65 64 0
-72 71 0
-83 82 0
108 111 0
-113 112 0
-114 112 0
-115 112 0
-116 112 0
-117 112 0
-112 117 0
119 134 0
-172 171 0
-173 171 0
-174 171 0
-171 172 173 174 0
-188 187 0
-187 188 0
-189 187 0
-187 189 0
-205 204 0
-204 205 0
-206 204 0
-204 206 0
-208 207 0
-209 207 0
-223 222 0
-222 223 0
-226 222 0
-222 226 0
-230 222 0
-231 222 0
-233 232 0
-232 233 0
-237 232 0
-232 237 0
-241 232 0
-232 241 0
-244 232 0
-232 244 0
-247 232 0
-248 232 0
-232 248 0
-250 249 0
-251 249 0
-253 249 0
-249 250 251 253 0
-259 258 0
-260 258 0
-271 270 0
-270 271 0
-55 54 0
-62 54 0
-63 54 0
-54 55 62 63 0
-73 72 0
-74 72 0
-84 83 0
-85 83 0
-86 83 0
-87 83 0
-88 83 0
-83 84 85 86 87 88 0
-109 108 0
-120 119 0
-119 120 0
-131 119 0
-119 131 0
-135 134 0
-136 134 0
-137 134 0
-134 135 136 137 0
140 141 142 143 144 145 146 147 148 0
-151 150 0
-152 150 0
-153 150 0
-154 150 0
-155 150 0
-156 150 0
-157 150 0
-150 151 152 153 154 155 156 157 0
-190 189 0
-198 189 0
-189 190 198 0
-224 223 0
-225 223 0
-223 224 225 0
-227 226 0
-228 226 0
-226 227 228 0
-234 233 0
-233 234 0
-235 233 0
-233 235 0
-236 233 0
-238 237 0
-239 237 0
-240 237 0
-237 238 239 240 0
-242 241 0
-243 241 0
-245 244 0
-246 244 0
-244 245 246 0
-252 251 0
-251 252 0
-254 253 0
-253 254 0
-56 55 0
-57 55 0
-58 55 0
-59 55 0
-60 55 0
-61 55 0
-55 56 57 58 59 60 61 0
-110 109 0
-121 120 0
-122 120 0
-120 121 122 0
-132 131 0
-133 131 0
-131 132 133 0
-191 190 0
-190 191 0
-199 198 0
-200 198 0
-201 198 0
-202 198 0
-203 198 0
-198 199 200 201 202 203 0
-229 228 0
-228 229 0
-123 122 0
-122 123 0
-124 122 0
-122 124 0
-127 122 0
-192 191 0
-191 192 0
-193 191 0
-125 124 0
-124 125 0
-126 124 0
-128 127 0
-129 127 0
-130 127 0
-127 128 129 130 0
-194 193 0
-195 193 0
-196 193 0
-197 193 0
-193 194 195 196 197 0

